cost: 634.93
Route 1:           0    2   27   36   17   49   39   25    4    0
Route 2:           0    8   24   22   12   15   47   42   46   16   14   34    9    3    1   35    0
Route 3:           0   30   29   41   40   11    5   33   18   45   43   38    6    0
Route 4:           0   48   23   21   10   37   31   26    7   19   20   50   13   28   44   32    0
